INPUT_PARAMETERS
#Parameters (General)
kpoint_file             KLINES
pseudo_dir              /sharedata01/apps/abacus/3.0.1/tests/PP_ORB
orbital_dir             /sharedata01/apps/abacus/3.0.1/tests/PP_ORB
calculation             nscf
ntype                   1
nbands                  8 
symmetry                0
#Parameters (Methos)
basis_type              lcao
#Parameters (Accuracy)
ecutwfc                 50
#Parameters (File)
init_chg                file
out_band                1
